p tw 139 155
1 2
2 52
3 14
4 5
5 6
6 7
7 8
8 9
9 10
10 11
11 12
12 13
12 19
13 15
14 25
15 16
16 17
17 18
18 27
19 20
20 21
21 22
22 23
23 24
24 26
25 36
26 27
27 28
28 29
29 30
30 31
31 32
32 33
33 34
34 35
35 37
36 46
37 38
38 39
39 40
40 41
41 42
42 43
43 44
44 45
46 47
47 48
48 49
49 50
50 51
50 80
51 53
52 63
53 54
54 55
55 56
55 77
56 57
57 58
58 59
58 72
59 60
60 61
60 65
61 62
62 64
62 68
63 74
64 48
65 66
66 67
67 48
68 69
69 70
70 71
71 48
72 73
73 75
74 85
75 76
76 48
77 78
78 79
79 48
80 81
81 82
82 83
83 84
83 90
84 86
85 96
85 46
86 87
86 98
87 88
88 89
88 92
89 95
90 91
91 44
92 93
93 94
94 98
95 97
96 107
97 98
98 99
99 100
99 108
100 101
101 102
102 103
103 104
104 105
105 106
105 108
106 44
107 118
108 109
109 110
109 115
110 111
111 112
112 113
113 114
114 115
115 116
116 117
117 119
117 125
118 129
119 120
119 123
120 121
121 122
122 123
123 124
124 44
125 126
126 127
126 27
127 128
128 130
129 3
130 131
131 132
132 133
133 134
134 135
135 136
136 137
136 4
137 138
138 139
139 4
